NAME
* Written by MOSEK version 7.0.0.55
OBJSENSE
    MIN
ROWS
 N  OBJ
 E  C1
COLUMNS
    X1        OBJ       0
    X1        C1        3e+0
    X2        OBJ       1e+0
    X2        C1        1e+0
RHS
    rhs       C1        3e+0
RANGES
BOUNDS
 FR bound     X1
 FR bound     X2
CSECTION      K1        0              QUAD
    X1
    X2
ENDATA
